12 40 3 10
8 7 6 20 4 15 3 8 17 10 17 4 20 16 2 3 17 20 2 8 11 7 8 8 7 7 11 13 11 19 4 19 4 1 17 11 9 6 5 15 
7.32 1.62 2.92 1.43 6.64 7.77 1.46 6.75 4.19 7.3 0.33 4.67 3.3 2.32 1.89 2.67 3.15 6.64 7.27 4.76 2.68 2.8 0.76 3.5 2.59 5.65 1.91 5.49 4.75 0.54 4.18 4.79 1.64 3.55 4.16 4.55 7.33 1.15 3.54 3.87 
5.24 2.74 1.36 6.69 3.67 7.17 1.29 2.46 1.65 7.76 3.79 5.77 6.66 6.38 6.51 5.1 5.55 1.37 2.22 6.6 5.25 3.42 2.16 2.28 4.89 4.84 3.96 0.99 0.52 3.17 7.03 0.03 7.07 0.79 1.69 7.04 3.52 6.35 2.4 3.39 
2.11 3.35 0.13 1.82 0.73 5.34 1 7.43 7.31 0.88 3.3 3.07 1.38 4.47 3.36 4.53 3.11 6.3 5.77 6.11 0.35 0.47 2.05 3.63 7.26 3.2 7.93 6.13 3.47 2.34 4.1 2.52 7.94 7.43 6.14 4.96 4.63 5.34 4.7 0.19 
4 4 4 4 4 4 4 4 4 4 4 4 4 4 4 4 4 4 4 4 4 4 4 4 4 4 4 4 4 4 4 4 4 4 4 4 4 4 4 4 
0.1 5.07 3.01 1.84 6.14 3.95 2.82 7.29 2.27 4.43 2.29 6.8 5.4 6.58 7.74 0.32 7.73 2.43 5.32 6.42 3.48 6.91 1.88 3.9 1.25 6.38 3.2 0.44 5.21 4.33 7.92 3.49 5.7 6.63 7.68 0.7 3.42 0.97 6.91 7.13 
7.88 0.02 5.73 3.56 2.09 1.89 1.4 3.61 0.82 5.79 7.04 1.83 6.28 7.75 2.84 6.03 6.05 6.49 3.51 5.51 1.04 1.87 7.31 7.48 5.26 2.12 2.43 7.69 5.35 2.31 4.68 6.05 7.1 7.15 7.83 2.7 5.2 2.26 1.5 3.61 
7.35 2.83 1.62 6.77 1.9 3.61 4.77 0.78 3.75 2.22 1.28 4.69 3.57 1.5 3.35 1.8 6.13 1.68 4.5 4.99 6.33 3.93 2.51 0.27 0.9 0.68 2.58 6.72 1.09 1.19 7.88 3.87 1.82 1.32 2.13 3.81 6.35 7.28 0.28 6.96 
5.65 2.89 6.04 5.98 5.27 1.24 4.61 1.46 1.32 1.8 1.6 7.3 5.33 3.7 3.16 2.99 6.39 6.92 2.8 0.32 1.81 3.59 3.07 7.96 7.43 4.94 2.34 1.51 3.88 6.6 6.16 3.5 0.37 1.88 5.27 2.79 3.49 2.11 1.24 1.15 
6.02 6.93 2 4.55 2.94 5.49 0.61 0.2 2.22 3.64 1.9 5.84 1.79 4.61 2.66 2.76 7.39 5.31 7.85 3.39 6.16 7.37 0.69 4.53 1.74 3.32 4.98 4.83 2.61 2.5 2.68 6.69 6.05 6.45 4.64 4.81 0.96 6.65 1.5 6.71 
3.6 3.38 0.78 5.88 1.79 4.51 4.07 1.19 7.22 6.22 5.75 6.12 4.91 3.5 0.31 7.96 4.64 4.18 6.92 3.33 3.83 5.35 1.85 1.48 3.49 4.61 4.86 3.09 7.98 7.24 7.74 0.37 3.92 0.91 6.03 1.15 2.89 3.43 3.54 7.96 
1.15 7.38 6.48 3.08 7.23 6.46 7.45 6.63 0.96 1.67 2.26 1.33 2.96 7.11 4.02 5.69 1.42 4.51 3.08 1.79 0.98 7.65 6.17 5.33 7.92 2.86 3.71 1.72 2.12 4.48 2.79 6.2 7.78 2.95 7.46 2.76 3.13 1.05 1.3 6.62 
7.35 1.03 0.45 3.4 4.93 2.59 5.02 2.47 3.69 6.12 6.82 7.38 4.72 7.62 5.96 6.92 5.98 2.12 7.57 4.22 6.59 4.38 1.5 0.2 2.58 5.31 4.4 2.58 7.87 5.52 0.36 2.22 3.03 1.61 2.34 0.99 0.07 5.1 5.67 6.06 
1 1 1 1 1 1 1 1 1 1 1 1 1 1 1 1 1 1 1 1 1 1 1 1 1 1 1 1 1 1 1 1 1 1 1 1 1 1 1 1 
1 1 1 1 1 1 1 1 1 1 1 1 1 1 1 1 1 1 1 1 1 1 1 1 1 1 1 1 1 1 1 1 1 1 1 1 1 1 1 1 
1 1 1 1 1 1 1 1 1 1 1 1 1 1 1 1 1 1 1 1 1 1 1 1 1 1 1 1 1 1 1 1 1 1 1 1 1 1 1 1 
1 1 1 1 1 1 1 1 1 1 1 1 1 1 1 1 1 1 1 1 1 1 1 1 1 1 1 1 1 1 1 1 1 1 1 1 1 1 1 1 
1 1 1 1 1 1 1 1 1 1 1 1 1 1 1 1 1 1 1 1 1 1 1 1 1 1 1 1 1 1 1 1 1 1 1 1 1 1 1 1 
1 1 1 1 1 1 1 1 1 1 1 1 1 1 1 1 1 1 1 1 1 1 1 1 1 1 1 1 1 1 1 1 1 1 1 1 1 1 1 1 
1 1 1 1 1 1 1 1 1 1 1 1 1 1 1 1 1 1 1 1 1 1 1 1 1 1 1 1 1 1 1 1 1 1 1 1 1 1 1 1 
1 1 1 1 1 1 1 1 1 1 1 1 1 1 1 1 1 1 1 1 1 1 1 1 1 1 1 1 1 1 1 1 1 1 1 1 1 1 1 1 
1 1 1 1 1 1 1 1 1 1 1 1 1 1 1 1 1 1 1 1 1 1 1 1 1 1 1 1 1 1 1 1 1 1 1 1 1 1 1 1 
1 1 1 1 1 1 1 1 1 1 1 1 1 1 1 1 1 1 1 1 1 1 1 1 1 1 1 1 1 1 1 1 1 1 1 1 1 1 1 1 
1 1 1 1 1 1 1 1 1 1 1 1 1 1 1 1 1 1 1 1 1 1 1 1 1 1 1 1 1 1 1 1 1 1 1 1 1 1 1 1 
1 1 1 1 1 1 1 1 1 1 1 1 1 1 1 1 1 1 1 1 1 1 1 1 1 1 1 1 1 1 1 1 1 1 1 1 1 1 1 1 
0.01 0.01 0.01 0.01 0.01 0.01 0.01 0.01 0.01 0.01 0.01 0.01 0.01 0.01 0.01 0.01 0.01 0.01 0.01 0.01 0.01 0.01 0.01 0.01 0.01 0.01 0.01 0.01 0.01 0.01 0.01 0.01 0.01 0.01 0.01 0.01 0.01 0.01 0.01 0.01 
0.02 0.02 0.02 0.02 0.02 0.02 0.02 0.02 0.02 0.02 0.02 0.02 0.02 0.02 0.02 0.02 0.02 0.02 0.02 0.02 0.02 0.02 0.02 0.02 0.02 0.02 0.02 0.02 0.02 0.02 0.02 0.02 0.02 0.02 0.02 0.02 0.02 0.02 0.02 0.02 
0.03 0.03 0.03 0.03 0.03 0.03 0.03 0.03 0.03 0.03 0.03 0.03 0.03 0.03 0.03 0.03 0.03 0.03 0.03 0.03 0.03 0.03 0.03 0.03 0.03 0.03 0.03 0.03 0.03 0.03 0.03 0.03 0.03 0.03 0.03 0.03 0.03 0.03 0.03 0.03 
0.04 0.04 0.04 0.04 0.04 0.04 0.04 0.04 0.04 0.04 0.04 0.04 0.04 0.04 0.04 0.04 0.04 0.04 0.04 0.04 0.04 0.04 0.04 0.04 0.04 0.04 0.04 0.04 0.04 0.04 0.04 0.04 0.04 0.04 0.04 0.04 0.04 0.04 0.04 0.04 
0.125 0.125 0.125 0.125 0.125 0.125 0.125 0.125 0.125 0.125 0.125 0.125 0.125 0.125 0.125 0.125 0.125 0.125 0.125 0.125 0.125 0.125 0.125 0.125 0.125 0.125 0.125 0.125 0.125 0.125 0.125 0.125 0.125 0.125 0.125 0.125 0.125 0.125 0.125 0.125 
0.25 0.25 0.25 0.25 0.25 0.25 0.25 0.25 0.25 0.25 0.25 0.25 0.25 0.25 0.25 0.25 0.25 0.25 0.25 0.25 0.25 0.25 0.25 0.25 0.25 0.25 0.25 0.25 0.25 0.25 0.25 0.25 0.25 0.25 0.25 0.25 0.25 0.25 0.25 0.25 
0.375 0.375 0.375 0.375 0.375 0.375 0.375 0.375 0.375 0.375 0.375 0.375 0.375 0.375 0.375 0.375 0.375 0.375 0.375 0.375 0.375 0.375 0.375 0.375 0.375 0.375 0.375 0.375 0.375 0.375 0.375 0.375 0.375 0.375 0.375 0.375 0.375 0.375 0.375 0.375 
0.5 0.5 0.5 0.5 0.5 0.5 0.5 0.5 0.5 0.5 0.5 0.5 0.5 0.5 0.5 0.5 0.5 0.5 0.5 0.5 0.5 0.5 0.5 0.5 0.5 0.5 0.5 0.5 0.5 0.5 0.5 0.5 0.5 0.5 0.5 0.5 0.5 0.5 0.5 0.5 
0.625 0.625 0.625 0.625 0.625 0.625 0.625 0.625 0.625 0.625 0.625 0.625 0.625 0.625 0.625 0.625 0.625 0.625 0.625 0.625 0.625 0.625 0.625 0.625 0.625 0.625 0.625 0.625 0.625 0.625 0.625 0.625 0.625 0.625 0.625 0.625 0.625 0.625 0.625 0.625 
0.75 0.75 0.75 0.75 0.75 0.75 0.75 0.75 0.75 0.75 0.75 0.75 0.75 0.75 0.75 0.75 0.75 0.75 0.75 0.75 0.75 0.75 0.75 0.75 0.75 0.75 0.75 0.75 0.75 0.75 0.75 0.75 0.75 0.75 0.75 0.75 0.75 0.75 0.75 0.75 
0.875 0.875 0.875 0.875 0.875 0.875 0.875 0.875 0.875 0.875 0.875 0.875 0.875 0.875 0.875 0.875 0.875 0.875 0.875 0.875 0.875 0.875 0.875 0.875 0.875 0.875 0.875 0.875 0.875 0.875 0.875 0.875 0.875 0.875 0.875 0.875 0.875 0.875 0.875 0.875 
1 1 1 1 1 1 1 1 1 1 1 1 1 1 1 1 1 1 1 1 1 1 1 1 1 1 1 1 1 1 1 1 1 1 1 1 1 1 1 1 
